# MIP start
C0 0
C1 0
C2 1
C3 0
C4 0
C5 0
C6 0
C7 0
C8 0
C9 0
C10 0
C11 0
C12 0
C13 0
C14 0
C15 0
C16 0
C17 1
C18 0
C19 0
C20 0
C21 0
C22 0
C23 0
C24 0
C25 1
C26 0
C27 0
C28 0
C29 0
C30 1
C31 0
C32 0
C33 0
C34 0
C35 0
C36 0
C37 0
C38 0
C39 0
C40 1
C41 0
C42 0
C43 0
C44 0
C45 0
C46 0
C47 0
C48 0
C49 0
C50 0
C51 1
C52 0
C53 0
C54 0
C55 0
C56 0
C57 0
C58 0
C59 1
C60 0
C61 0
C62 0
C63 1
C64 0
C65 0
C66 0
C67 0
C68 0
C69 0
C70 0
C71 0
C72 0
C73 1
C74 0
C75 0
C76 0
C77 0
C78 0
C79 0
C80 0
C81 0
C82 1
C83 0
C84 0
C85 0
C86 0
C87 0
C88 0
C89 0
C90 1
C91 0
C92 0
C93 0
C94 0
C95 0
C96 0
C97 0
C98 0
C99 0
C100 0
C101 0
C102 0
C103 0
C104 0
C105 1
C106 0
C107 0
C108 0
C109 0
C110 0
C111 0
C112 0
C113 0
C114 0
C115 1
C116 0
C117 0
C118 0
C119 1
C120 0
C121 0
C122 0
C123 0
C124 0
C125 0
C126 0
C127 0
C128 0
C129 0
C130 0
C131 1
C132 0
C133 0
C134 0
C135 0
C136 0
C137 0
C138 1
C139 0
C140 0
C141 0
C142 0
C143 0
C144 0
C145 0
C146 0
C147 0
C148 1
C149 0
C150 0
C151 0
C152 0
C153 0
C154 0
C155 0
C156 0
C157 0
C158 0
C159 0
C160 0
C161 1
C162 0
C163 0
C164 0
C165 1
C166 0
C167 0
C168 0
C169 0
C170 0
C171 0
C172 0
C173 0
C174 0
C175 1
C176 0
C177 0
C178 0
C179 0
C180 0
C181 0
C182 0
C183 0
C184 0
C185 1
C186 0
C187 0
C188 0
C189 0
C190 0
C191 0
C192 0
C193 0
C194 0
C195 0
C196 0
C197 1
C198 1
C199 0
C200 0
C201 0
C202 0
C203 0
C204 0
C205 0
C206 0
C207 0
C208 1
C209 0
C210 0
C211 0
C212 0
C213 0
C214 0
C215 0
C216 0
C217 0
C218 0
C219 0
C220 0
C221 0
C222 0
C223 1
C224 0
C225 0
C226 0
C227 1
C228 0
C229 0
C230 0
C231 0
C232 0
C233 0
C234 0
C235 0
C236 0
C237 0
C238 0
C239 0
C240 1
C241 0
C242 0
C243 0
C244 0
C245 0
C246 0
C247 0
C248 0
C249 1
C250 0
C251 0
C252 0
C253 0
C254 0
C255 1
C256 0
C257 0
C258 0
C259 0
C260 0
C261 0
C262 0
C263 0
C264 0
C265 1
C266 0
C267 0
C268 0
C269 0
C270 1
C271 0
C272 0
C273 0
C274 0
C275 0
C276 0
C277 0
C278 0
C279 0
C280 0
C281 0
C282 0
C283 0
C284 0
C285 0
C286 0
C287 1
C288 0
C289 0
C290 1
C291 0
C292 0
C293 0
C294 0
C295 0
C296 0
C297 0
C298 1
C299 0
C300 0
C301 0
C302 0
C303 0
C304 0
C305 0
C306 0
C307 0
C308 0
C309 0
C310 0
C311 0
C312 0
C313 1
C314 0
C315 0
C316 0
C317 0
C318 0
C319 0
C320 1
C321 0
C322 0
C323 0
C324 1
C325 0
C326 0
C327 0
C328 0
C329 0
C330 0
C331 0
C332 0
C333 0
C334 0
C335 0
C336 0
C337 0
C338 0
C339 0
C340 1
C341 0
C342 0
C343 0
C344 1
C345 0
C346 0
C347 0
C348 0
C349 0
C350 0
C351 0
C352 0
C353 0
C354 0
C355 0
C356 1
C357 0
C358 0
C359 0
C360 0
C361 1
C362 0
C363 0
C364 0
C365 0
C366 0
C367 0
C368 0
C369 0
C370 0
C371 0
C372 1
C373 0
C374 0
C375 0
C376 0
C377 0
C378 0
C379 0
C380 0
C381 0
C382 0
C383 0
C384 1
C385 0
C386 0
C387 0
C388 0
C389 0
C390 0
C391 0
C392 0
C393 0
C394 0
C395 1
C396 0
C397 0
C398 0
C399 0
C400 1
C401 0
C402 0
C403 0
C404 0
C405 0
C406 0
C407 0
C408 0
C409 0
C410 0
C411 0
C412 0
C413 1
C414 0
C415 0
C416 0
C417 0
C418 0
C419 1
C420 0
C421 0
C422 0
C423 0
C424 1
C425 0
C426 0
C427 0
C428 0
C429 0
C430 0
C431 0
C432 0
C433 0
C434 0
C435 0
C436 0
C437 0
C438 1
C439 0
C440 0
C441 0
C442 0
C443 0
C444 0
C445 0
C446 0
C447 0
C448 1
C449 0
C450 0
C451 0
C452 0
C453 0
C454 1
C455 0
C456 0
C457 0
C458 0
C459 1
C460 0
C461 0
C462 0
C463 0
C464 0
C465 0
C466 0
C467 0
C468 0
C469 0
C470 0
C471 1
C472 0
C473 0
C474 0
C475 0
C476 0
C477 0
C478 0
C479 1
C480 0
C481 0
C482 0
C483 0
C484 0
C485 0
C486 0
C487 0
C488 0
C489 0
C490 0
C491 0
C492 0
C493 1
C494 0
C495 0
C496 0
C497 1
C498 0
C499 0
C500 0
C501 0
C502 0
C503 0
C504 1
C505 0
C506 0
C507 0
C508 0
C509 0
C510 0
C511 0
C512 0
C513 0
C514 1
C515 0
C516 0
C517 0
C518 0
C519 0
C520 0
C521 0
C522 0
C523 0
C524 0
C525 0
C526 0
C527 0
C528 1
C529 0
C530 0
C531 0
C532 0
C533 0
C534 0
C535 0
C536 0
C537 0
C538 0
C539 1
C540 0
C541 0
C542 0
C543 0
C544 1
C545 0
C546 0
C547 0
C548 0
C549 0
C550 0
C551 0
C552 0
C553 0
C554 1
C555 0
C556 0
C557 0
C558 0
C559 0
C560 0
C561 1
C562 0
C563 0
C564 0
C565 0
C566 0
C567 0
C568 0
C569 0
C570 0
C571 0
C572 1
C573 0
C574 0
C575 0
C576 0
C577 1
C578 0
C579 0
C580 0
C581 0
C582 0
C583 0
C584 0
C585 0
C586 0
C587 0
C588 0
C589 0
C590 0
C591 0
C592 0
C593 1
C594 0
C595 0
C596 0
C597 0
C598 1
C599 0
C600 0
C601 0
C602 0
C603 0
C604 0
C605 0
C606 1
C607 0
C608 0
C609 0
C610 0
C611 0
C612 0
C613 0
C614 0
C615 0
C616 0
C617 0
C618 0
C619 1
C620 0
C621 0
C622 0
C623 1
C624 0
C625 0
C626 0
C627 0
C628 0
C629 0
C630 0
C631 0
C632 0
C633 0
C634 0
C635 0
C636 1
C637 0
C638 0
C639 1
C640 0
C641 0
C642 0
C643 0
C644 0
C645 0
C646 0
C647 0
C648 0
C649 0
C650 0
C651 0
C652 1
C653 0
C654 0
C655 0
C656 0
C657 0
C658 0
C659 0
C660 0
C661 0
C662 0
C663 1
C664 0
C665 0
C666 0
C667 0
C668 0
C669 1
C670 0
C671 0
C672 0
C673 0
C674 0
C675 0
C676 0
C677 1
C678 0
C679 0
C680 0
C681 0
C682 0
C683 0
C684 0
C685 0
C686 0
C687 0
C688 0
C689 1
C690 0
C691 0
C692 0
C693 1
C694 0
C695 0
C696 0
C697 0
C698 0
C699 0
C700 0
C701 0
C702 0
C703 0
C704 0
C705 0
C706 0
C707 0
C708 0
C709 0
C710 1
C711 0
C712 1
C713 0
C714 0
C715 0
C716 0
C717 0
C718 0
C719 0
C720 0
C721 0
C722 0
C723 0
C724 0
C725 0
C726 0
C727 1
C728 0
